Reading model...
...model read.
creating competitive generators file...
...competitive generators recorded.
Loading data...
.. real-time data read.
Compiling instance...
...instance created.
Creating Offer Mitigation (model will solve as dispatch if TRUE)...
NOTE: storage offers will not be mitigated
...storage offer mitigation file created
Converting model to MPEC...
...converted
NOTE: initial MIP solve with only storage competitive to get feasible solution
Solving...

Welcome to IBM(R) ILOG(R) CPLEX(R) Interactive Optimizer 12.9.0.0
  with Simplex, Mixed Integer & Barrier Optimizers
5725-A06 5725-A29 5724-Y48 5724-Y49 5724-Y54 5724-Y55 5655-Y21
Copyright IBM Corp. 1988, 2019.  All Rights Reserved.

Type 'help' for a list of available commands.
Type 'help' followed by a command name for more
information on commands.

CPLEX> Logfile 'cplex.log' closed.
Logfile 'C:\Users\llavin\Desktop\test826\logs\tmpb_r6wx68.cplex.log' open.
CPLEX> New value for parallel optimization mode: -1
CPLEX> New value for mixed integer optimality gap tolerance: 0.01
CPLEX> New value for feasibility tolerance: 1e-09
CPLEX> New value for deterministic time limit in ticks: 100000
CPLEX> Problem 'C:\Users\llavin\Desktop\test826\logs\tmpudevk31o.pyomo.lp' read.
Read time = 0.53 sec. (28.55 ticks)
CPLEX> Problem name         : C:\Users\llavin\Desktop\test826\logs\tmpudevk31o.pyomo.lp
Objective sense      : Maximize
Variables            :  107781  [Nneg: 1,  Box: 44056,  Free: 8928,
                                 Binary: 54796]
Objective nonzeros   :   19009
Linear constraints   :  246901  [Less: 82866,  Greater: 118424,  Equal: 45611]
  Nonzeros           :  619709
  RHS nonzeros       :  136514

Variables            : Min LB: -5000.000        Max UB: 1000000.       
Objective nonzeros   : Min   : 0.1666667        Max   : 208.3333       
Linear constraints   :
  Nonzeros           : Min   : 0.1666667        Max   : 1000000.       
  RHS nonzeros       : Min   : 0.1666667        Max   : 1000000.       
CPLEX> CPXPARAM_Parallel                                -1
CPXPARAM_Simplex_Tolerances_Feasibility          1.0000000000000001e-09
CPXPARAM_DetTimeLimit                            100000
CPXPARAM_MIP_Tolerances_MIPGap                   0.01
Tried aggregator 3 times.
MIP Presolve eliminated 172681 rows and 33965 columns.
MIP Presolve added 7727 rows and 0 columns.
MIP Presolve modified 53892 coefficients.
Aggregator did 26111 substitutions.
Reduced MIP has 55836 rows, 47321 columns, and 182380 nonzeros.
Reduced MIP has 18778 binaries, 0 generals, 0 SOSs, and 0 indicators.
Presolve time = 0.63 sec. (386.90 ticks)
Probing fixed 715 vars, tightened 10723 bounds.
Probing time = 0.41 sec. (17.21 ticks)
Tried aggregator 2 times.
MIP Presolve eliminated 1635 rows and 1458 columns.
MIP Presolve modified 7073 coefficients.
Aggregator did 80 substitutions.
Reduced MIP has 54121 rows, 45783 columns, and 177248 nonzeros.
Reduced MIP has 18058 binaries, 0 generals, 0 SOSs, and 0 indicators.
Presolve time = 0.31 sec. (292.30 ticks)
Probing fixed 5 vars, tightened 399 bounds.
Probing time = 0.59 sec. (22.07 ticks)
Clique table members: 97111.
MIP emphasis: balance optimality and feasibility.
MIP search method: dynamic search.
Parallel mode: opportunistic, using up to 32 threads.
Root relaxation solution time = 1.42 sec. (2418.39 ticks)

        Nodes                                         Cuts/
   Node  Left     Objective  IInf  Best Integer    Best Bound    ItCnt     Gap

      0     0       -0.0000    11                     -0.0000    11039         
      0     0       -1.1702     3                 Flowcuts: 1    11174         
      0     0       -2.9367     2                     Cuts: 6    11177         
*     0+    0                           -0.0000       -2.9367              --- 
      0     0        cutoff             -0.0000       -2.9367    11183     --- 
Elapsed time = 5.88 sec. (5130.20 ticks, tree = 0.01 MB, solutions = 1)

Cover cuts applied:  1
Flow cuts applied:  5
Mixed integer rounding cuts applied:  2

Root node processing (before b&c):
  Real time             =    5.91 sec. (5134.03 ticks)
Parallel b&c, 32 threads:
  Real time             =    0.00 sec. (0.00 ticks)
  Sync time (average)   =    0.00 sec.
  Wait time (average)   =    0.00 sec.
                          ------------
Total (root+branch&cut) =    5.91 sec. (5134.03 ticks)

Solution pool: 1 solution saved.

MIP - Integer optimal solution:  Objective = -4.1762584033e-05
Solution time =    5.92 sec.  Iterations = 11183  Nodes = 0
Deterministic time = 5134.34 ticks  (866.99 ticks/sec)

CPLEX> Incumbent solution written to file 'C:\Users\llavin\Desktop\test826\logs\tmpck62879c.cplex.sol'.
CPLEX> NOTE: no warmstart specified for MIP iteration, default behavior is true
NOTE: resolving with all competitive generators using storage-only solution to warmstart
Solving...

Welcome to IBM(R) ILOG(R) CPLEX(R) Interactive Optimizer 12.9.0.0
  with Simplex, Mixed Integer & Barrier Optimizers
5725-A06 5725-A29 5724-Y48 5724-Y49 5724-Y54 5724-Y55 5655-Y21
Copyright IBM Corp. 1988, 2019.  All Rights Reserved.

Type 'help' for a list of available commands.
Type 'help' followed by a command name for more
information on commands.

CPLEX> Logfile 'cplex.log' closed.
Logfile 'C:\Users\llavin\Desktop\test826\logs\tmpt4qe9my7.cplex.log' open.
CPLEX> New value for parallel optimization mode: -1
CPLEX> New value for mixed integer optimality gap tolerance: 0.01
CPLEX> New value for feasibility tolerance: 1e-09
CPLEX> New value for deterministic time limit in ticks: 100000
CPLEX> Problem 'C:\Users\llavin\Desktop\test826\logs\tmp2w026pw4.pyomo.lp' read.
Read time = 0.52 sec. (28.60 ticks)
CPLEX> MIP start file 'C:\Users\llavin\Desktop\test826\logs\tmphobwlt0f.cplex.mst' read.
CPLEX> Problem name         : C:\Users\llavin\Desktop\test826\logs\tmp2w026pw4.pyomo.lp
Objective sense      : Maximize
Variables            :  109221  [Nneg: 1,  Box: 45496,  Free: 8928,
                                 Binary: 54796]
Objective nonzeros   :   20401
Linear constraints   :  246901  [Less: 82866,  Greater: 118424,  Equal: 45611]
  Nonzeros           :  619709
  RHS nonzeros       :  136514

Variables            : Min LB: -5000.000        Max UB: 1000000.       
Objective nonzeros   : Min   : 0.1666667        Max   : 208.3333       
Linear constraints   :
  Nonzeros           : Min   : 0.1666667        Max   : 1000000.       
  RHS nonzeros       : Min   : 0.1666667        Max   : 1000000.       
CPLEX> CPXPARAM_Parallel                                -1
CPXPARAM_Simplex_Tolerances_Feasibility          1.0000000000000001e-09
CPXPARAM_DetTimeLimit                            100000
CPXPARAM_MIP_Tolerances_MIPGap                   0.01
Warning:  No solution found from 1 MIP starts.
Retaining values of one MIP start for possible repair.
Tried aggregator 3 times.
MIP Presolve eliminated 172681 rows and 35405 columns.
MIP Presolve added 7727 rows and 0 columns.
MIP Presolve modified 53892 coefficients.
Aggregator did 26111 substitutions.
Reduced MIP has 55836 rows, 47321 columns, and 182380 nonzeros.
Reduced MIP has 18778 binaries, 0 generals, 0 SOSs, and 0 indicators.
Presolve time = 0.63 sec. (387.64 ticks)
Probing fixed 715 vars, tightened 10723 bounds.
Probing time = 0.42 sec. (17.21 ticks)
Tried aggregator 2 times.
MIP Presolve eliminated 1635 rows and 1458 columns.
MIP Presolve modified 7073 coefficients.
Aggregator did 80 substitutions.
Reduced MIP has 54121 rows, 45783 columns, and 177248 nonzeros.
Reduced MIP has 18058 binaries, 0 generals, 0 SOSs, and 0 indicators.
Presolve time = 0.33 sec. (292.31 ticks)
Probing fixed 5 vars, tightened 399 bounds.
Probing time = 0.58 sec. (22.07 ticks)
Clique table members: 97111.
MIP emphasis: balance optimality and feasibility.
MIP search method: dynamic search.
Parallel mode: opportunistic, using up to 32 threads.
Root relaxation solution time = 1.67 sec. (2601.62 ticks)

        Nodes                                         Cuts/
   Node  Left     Objective  IInf  Best Integer    Best Bound    ItCnt     Gap

      0     0      964.3896    69                    964.3896    12168         
      0     0      961.4529    12                 Flowcuts: 4    12188         
      0     0      958.6696    20                    Cuts: 20    12241         
      0     0      952.0125    29                     Cuts: 9    12262         
      0     0      947.3786    25                     Cuts: 7    12277         
      0     0      945.0979    37                     Cuts: 7    12291         
      0     0      945.0979    38                     Cuts: 5    12295         
Repair heuristic found nothing.
      0     2      945.0979    33                     Cuts: 4    12295         
Elapsed time = 16.19 sec. (11261.84 ticks, tree = 0.02 MB, solutions = 0)
    225    46      213.1356     7                    566.7403    12813         
    406   116       65.9605     6                    566.7403    13647         
    628   417      217.4574     8                    502.4353    17267         
    864   753      172.5649     4                    502.4353    20626         
   1100   750      282.7927     5                    502.4353    20273         
   1316   732       16.0811     3                    502.4353    20243         
   1539   882      174.2907     4                    502.4353    21495         
   1758  1013      303.4080    10                    502.4353    22878         
   1977  1549      174.2907     5                    502.4353    27580         
   2888  2108       87.6997     6                    502.4353    34471         
Elapsed time = 41.97 sec. (14367.53 ticks, tree = 26.27 MB, solutions = 0)
   3813  2629      108.0858     3                    502.4353    40786         
   4716  4329      -81.9142     2                    502.4353    60981         
   5548  4548       32.7253     4                    502.4353    63805         
   5967  4455      211.7728     9                    502.4353    62592         
*  5993+ 3684                        -2109.4737      502.4353           123.82%
   5993  3716       54.9652     3    -2109.4737      502.4353    91126  123.82%
   6499    89       22.8420     4    -2109.4737      502.4353    91674  123.82%
   7003    72       11.2747     3    -2109.4737      502.4353    91290  123.82%
   7791   385      282.7909     6    -2109.4737      502.4353    92677  123.82%
   8597  1113      193.6865     4    -2109.4737      502.4353    95126  123.82%
   9539  3496      157.8408     5    -2109.4737      502.4353   105147  123.82%
Elapsed time = 122.45 sec. (33765.87 ticks, tree = 49.25 MB, solutions = 1)
  10737  1843      106.5937     6    -2109.4737      414.0939    98229  119.63%
  11655  2561        cutoff          -2109.4737      414.0939   101453  119.63%
  12986  4369     -123.3289     4    -2109.4737      414.0939   108363  119.63%
  14357  3932      -77.7617     4    -2109.4737      414.0939   106675  119.63%
  16063  4366      -68.8701     3    -2109.4737      414.0939   108364  119.63%
  17805  5090     -196.3031     6    -2109.4737      414.0939   111557  119.63%
  19384  5155      -77.4660     3    -2109.4737      414.0939   111573  119.63%
  21040  6776     -101.9377     2    -2109.4737      414.0939   119278  119.63%
  22819  7715       59.5898     4    -2109.4737      324.9885   122707  115.41%
  24714  8455      -36.5351     7    -2109.4737      302.5466   126103  114.34%
Elapsed time = 184.17 sec. (43306.38 ticks, tree = 134.10 MB, solutions = 1)
  26542 13062       40.5804     5    -2109.4737      302.5466   145858  114.34%
  28473 13635    infeasible          -2109.4737      302.5466   148285  114.34%
  30331 14031     -205.8615     6    -2109.4737      302.5466   149487  114.34%
  31823 18115      111.9474     4    -2109.4737      302.5466   169177  114.34%
  32855 16448     -167.9793     5    -2109.4737      302.5466   160415  114.34%
  33480 17713       24.4571     5    -2109.4737      302.5466   166439  114.34%
  33556 24844      -34.1402     1    -2109.4737      239.3871   216437  111.35%
  33959    75       85.1855     2    -2109.4737      239.3871   217355  111.35%
  34472   293      -60.5362     1    -2109.4737      239.3871   218682  111.35%
  35026   768       88.2046     4    -2109.4737      239.3871   220939  111.35%
Elapsed time = 250.47 sec. (64056.05 ticks, tree = 7.58 MB, solutions = 1)
  35653   874      -71.7406     2    -2109.4737      239.3871   221283  111.35%
  36196  1188       30.4011     3    -2109.4737      239.3871   222710  111.35%
  36786  1419      -50.6408     2    -2109.4737      239.3871   224324  111.35%
  37446  1722      111.9474     6    -2109.4737      239.3871   226262  111.35%
  38304  2072      136.7054     2    -2109.4737      239.3871   228423  111.35%
  39143  2688      136.7054     3    -2109.4737      239.3871   233235  111.35%
  40130  2526      109.0609     3    -2109.4737      239.3871   231510  111.35%
  41175  4051       29.0131     7    -2109.4737      239.3871   242846  111.35%
  42291  5246       34.6538     4    -2109.4737      239.3871   248945  111.35%
  43501  6280    -1119.7904    43    -2109.4737      239.3871   254415  111.35%
Elapsed time = 326.91 sec. (73609.21 ticks, tree = 728.45 MB, solutions = 1)
  44648  7331       -8.4134     5    -2109.4737      239.3871   260046  111.35%
  45815  8246      136.7054     2    -2109.4737      239.3871   265833  111.35%
  47070  8501      121.5123     2    -2109.4737      239.3871   266683  111.35%
  48498  8864      -94.6031     4    -2109.4737      239.3871   268608  111.35%
  49852  8593      113.5488     3    -1475.4641      239.3871   267177  116.22%
  51135  9460       48.0225     5    -1475.4641      239.3871   271587  116.22%
* 51820  9746      integral     0    -1475.4641      239.3871   272923  116.22%
  52497 12028      125.1381     3    -1475.4641      239.3871   285817  116.22%
  54003 10712      101.9224     2    -1475.4641      239.3871   278451  116.22%
* 55191+18401                        -1059.0400      239.3871           122.60%
  55568 12271       -5.2039     5    -1059.0400      239.3871   286641  122.60%
  57183 15277      125.1381     4    -1059.0400      239.3871   302297  122.60%
Elapsed time = 389.45 sec. (83150.22 ticks, tree = 979.72 MB, solutions = 6)
  58844 15939      125.1381     2    -1059.0400      239.3871   305598  122.60%
  60550 12913      125.1381     3    -1059.0400      239.3871   290294  122.60%
  62213 16193      125.1381     3    -1059.0400      239.3871   306931  122.60%
  63865 15393       -4.4323    10    -1059.0400      239.3871   302840  122.60%
  65431 23769      -60.1979     5    -1059.0400      239.3871   349864  122.60%
  67015 19095       -4.7316     4    -1059.0400      239.3871   325410  122.60%
  68497 18440      125.1381     1    -1059.0400      239.3871   318970  122.60%
  70020 18701        cutoff          -1059.0400      239.3871   323625  122.60%
  71545 25474      125.0189     3    -1059.0400      239.3871   359000  122.60%
  72993 22708      -11.8025     4    -1059.0400      239.3871   344282  122.60%
Elapsed time = 437.44 sec. (92695.21 ticks, tree = 1079.26 MB, solutions = 6)
  74355 26485      -65.6460     3    -1059.0400      239.3871   364970  122.60%
  75570 25617      113.4516     3    -1059.0400      239.3871   359850  122.60%
  76404 26579       97.4935     2    -1059.0400      239.3871   365459  122.60%
  77064 27775      113.4516     5    -1059.0400      239.3871   373074  122.60%
  77619 28458      125.0189     4    -1059.0400      239.3871   376673  122.60%
  78009 26908     -179.8486    10    -1059.0400      239.3871   367866  122.60%
  78143 28050     -100.9573     6    -1059.0400      239.3871   374698  122.60%

Cover cuts applied:  5
Flow cuts applied:  33
Mixed integer rounding cuts applied:  11
Gomory fractional cuts applied:  2

Root node processing (before b&c):
  Real time             =   13.02 sec. (11104.94 ticks)
Parallel b&c, 32 threads:
  Real time             =  429.58 sec. (88921.09 ticks)
  Sync time (average)   =    4.94 sec.
  Wait time (average)   =    0.78 sec.
                          ------------
Total (root+branch&cut) =  442.59 sec. (100026.03 ticks)

Solution pool: 6 solutions saved.

MIP - Deterministic time limit exceeded, integer feasible:  Objective = -1.0590399578e+03
Current MIP best bound =  2.3244435192e+02 (gap = 1291.48, 121.95%)
Solution time =  442.63 sec.  Iterations = 446857  Nodes = 78177 (41460)
Deterministic time = 100026.34 ticks  (225.98 ticks/sec)

CPLEX> Incumbent solution written to file 'C:\Users\llavin\Desktop\test826\logs\tmpmoybkt68.cplex.sol'.
CPLEX> Exporting results... 
